NAME 
ROWS
 N  OBJ
 L  R0      
 E  R1      
 E  R2      
 E  R3      
 E  R4      
 E  R5      
 E  R6      
 E  R7      
 E  R8      
 E  R9      
 E  R10     
COLUMNS
    MARKER    'MARKER'                 'INTORG'
    I0(7)     OBJ       -117
    I0(7)     R0        157
    I0(7)     R1        19
    I0(7)     R2        -1
    I0(7)     R3        1
    I0(7)     R4        13
    I0(7)     R6        18
    I0(7)     R10       1
    I1(7)     OBJ       -15
    I1(7)     R0        -170
    I1(7)     R1        12
    I1(7)     R2        8
    I1(7)     R3        -1
    I1(7)     R5        15
    I1(7)     R6        8
    I1(7)     R10       1
    I2(6)     OBJ       31
    I2(6)     R0        -83
    I2(6)     R2        14
    I2(6)     R3        13
    I2(6)     R4        11
    I2(6)     R5        17
    I2(6)     R10       1
    I3(6)     OBJ       -200
    I3(6)     R0        -77
    I3(6)     R1        12
    I3(6)     R3        4
    I3(6)     R4        10
    I3(6)     R6        13
    I3(6)     R10       1
    I4(7)     OBJ       -22
    I4(7)     R0        95
    I4(7)     R1        9
    I4(7)     R2        8
    I4(7)     R3        7
    I4(7)     R5        14
    I4(7)     R6        1
    I4(7)     R10       1
    I5(4)     OBJ       -179
    I5(4)     R0        124
    I5(4)     R2        7
    I5(4)     R6        5
    I5(4)     R10       1
    MARKER    'MARKER'                 'INTEND'
    C6(6)     OBJ       3
    C6(6)     R0        4
    C6(6)     R1        2
    C6(6)     R2        18
    C6(6)     R4        13
    C6(6)     R5        4
    C6(6)     R9        19
    C7(6)     OBJ       -2
    C7(6)     R0        -6
    C7(6)     R2        7
    C7(6)     R3        6
    C7(6)     R5        10
    C7(6)     R6        -1
    C7(6)     R9        6
    C8(7)     OBJ       -9
    C8(7)     R0        -5
    C8(7)     R1        4
    C8(7)     R2        4
    C8(7)     R3        9
    C8(7)     R6        14
    C8(7)     R7        7
    C8(7)     R8        10
    C9(4)     OBJ       9
    C9(4)     R0        -3
    C9(4)     R2        12
    C9(4)     R4        13
    C9(4)     R5        2
    C10(1)    R1        1
    C11(1)    R2        1
    C12(1)    R3        1
    C13(1)    R4        1
    C14(1)    R5        1
    C15(1)    R6        1
    C16(1)    R7        1
    C17(1)    R8        1
    C18(1)    R9        1
    C19(1)    R10       1
RHS
    RHS1      R0        -2.2619354838709677e+02
    RHS1      R1        95
    RHS1      R2        85
    RHS1      R3        98
    RHS1      R4        77
    RHS1      R5        88
    RHS1      R6        80
    RHS1      R7        94
    RHS1      R8        63
    RHS1      R9        99
    RHS1      R10       2
BOUNDS
 UP BND1      I0(7)     2
 UP BND1      I1(7)     2
 UP BND1      I2(6)     2
 UP BND1      I3(6)     2
 UP BND1      I4(7)     2
 UP BND1      I5(4)     2
ENDATA
